p cnf 317 711
a 1 2 3 4 5 6 7 8 9 10 11 12 13 14 15 16 17 18 19 20 21 22 23 24 25 26 27 28 29 30 31 32 33 34 35 36 37 38 39 40 41 42 43 44 45 46 47 48 49 50 51 52 53 54 55 56 57 58 59 60 61 62 63 64 65 66 67 68 69 70 71 72 73 74 75 76 77 78 79 80 81 82 83 84 85 86 87 88 89 90 91 92 93 94 95 96 97 98 99 100 101 102 103 104 105 106 107 108 109 110 111 112 113 114 115 116 117 118 119 120 0
e 121 122 123 124 125 126 127 128 129 130 131 132 133 134 135 136 137 138 139 140 141 142 143 144 145 146 147 148 149 150 151 152 153 154 155 156 157 158 159 160 161 162 163 164 165 166 167 168 169 170 171 172 173 174 175 176 177 178 179 180 181 182 183 184 185 186 187 188 189 190 191 192 193 194 195 196 197 198 199 200 201 202 203 204 205 206 207 208 209 210 211 212 213 214 215 216 217 218 219 220 221 222 223 224 225 226 227 228 229 230 231 232 233 234 235 236 237 238 239 240 241 242 243 244 245 246 247 248 249 250 251 252 253 254 255 256 257 258 259 260 261 262 263 264 265 266 267 268 269 270 271 272 273 274 275 276 277 278 279 280 281 282 283 284 285 286 287 288 289 290 291 292 293 294 295 296 297 298 299 300 301 302 303 304 305 306 307 308 309 310 311 312 313 314 315 316 0
-1 -161 0
-2 -161 0
3 -161 0
-4 -161 0
-5 -161 0
6 -161 0
7 -161 0
-8 -161 0
-9 -161 0
-10 -161 0
-11 -161 0
-12 -161 0
-13 -161 0
-14 -161 0
-15 -161 0
-16 -161 0
-17 -161 0
-18 -161 0
-19 -161 0
-20 -161 0
1 2 4 5 8 9 10 11 12 13 14 15 16 17 18 19 20 161 -3 -6 -7 0
-21 -162 0
-22 -162 0
-23 -162 0
24 -162 0
-25 -162 0
-26 -162 0
27 -162 0
28 -162 0
-29 -162 0
-30 -162 0
-31 -162 0
-32 -162 0
-33 -162 0
-34 -162 0
-35 -162 0
-36 -162 0
-37 -162 0
-38 -162 0
-39 -162 0
-40 -162 0
21 22 23 25 26 29 30 31 32 33 34 35 36 37 38 39 40 162 -24 -27 -28 0
161 -163 0
162 -163 0
163 -161 -162 0
-41 -21 -164 0
41 21 -164 0
21 164 -41 0
41 164 -21 0
-42 -22 -165 0
42 22 -165 0
22 165 -42 0
42 165 -22 0
-43 -23 -166 0
43 23 -166 0
23 166 -43 0
43 166 -23 0
-44 -24 -167 0
44 24 -167 0
24 167 -44 0
44 167 -24 0
-45 -25 -168 0
45 25 -168 0
25 168 -45 0
45 168 -25 0
-46 -26 -169 0
46 26 -169 0
26 169 -46 0
46 169 -26 0
-47 -27 -170 0
47 27 -170 0
27 170 -47 0
47 170 -27 0
-48 -28 -171 0
48 28 -171 0
28 171 -48 0
48 171 -28 0
-49 -29 -172 0
49 29 -172 0
29 172 -49 0
49 172 -29 0
-50 -30 -173 0
50 30 -173 0
30 173 -50 0
50 173 -30 0
-51 -31 -174 0
51 31 -174 0
31 174 -51 0
51 174 -31 0
-52 -32 -175 0
52 32 -175 0
32 175 -52 0
52 175 -32 0
-53 -33 -176 0
53 33 -176 0
33 176 -53 0
53 176 -33 0
-54 -34 -177 0
54 34 -177 0
34 177 -54 0
54 177 -34 0
-55 -35 -178 0
55 35 -178 0
35 178 -55 0
55 178 -35 0
-56 -36 -179 0
56 36 -179 0
36 179 -56 0
56 179 -36 0
-57 -37 -180 0
57 37 -180 0
37 180 -57 0
57 180 -37 0
-58 -38 -181 0
58 38 -181 0
38 181 -58 0
58 181 -38 0
-59 -39 -182 0
59 39 -182 0
39 182 -59 0
59 182 -39 0
-60 -40 -183 0
60 40 -183 0
40 183 -60 0
60 183 -40 0
-164 -184 0
-165 -184 0
-166 -184 0
-167 -184 0
-168 -184 0
-169 -184 0
-170 -184 0
-171 -184 0
-172 -184 0
-173 -184 0
-174 -184 0
-175 -184 0
-176 -184 0
-177 -184 0
-178 -184 0
-179 -184 0
-180 -184 0
-181 -184 0
-182 -184 0
-183 -184 0
164 165 166 167 168 169 170 171 172 173 174 175 176 177 178 179 180 181 182 183 184 0
-61 -1 -185 0
61 1 -185 0
1 185 -61 0
61 185 -1 0
-62 -2 -186 0
62 2 -186 0
2 186 -62 0
62 186 -2 0
-63 -3 -187 0
63 3 -187 0
3 187 -63 0
63 187 -3 0
-64 -4 -188 0
64 4 -188 0
4 188 -64 0
64 188 -4 0
-65 -5 -189 0
65 5 -189 0
5 189 -65 0
65 189 -5 0
-66 -6 -190 0
66 6 -190 0
6 190 -66 0
66 190 -6 0
-67 -7 -191 0
67 7 -191 0
7 191 -67 0
67 191 -7 0
-68 -8 -192 0
68 8 -192 0
8 192 -68 0
68 192 -8 0
-69 -9 -193 0
69 9 -193 0
9 193 -69 0
69 193 -9 0
-70 -10 -194 0
70 10 -194 0
10 194 -70 0
70 194 -10 0
-71 -11 -195 0
71 11 -195 0
11 195 -71 0
71 195 -11 0
-72 -12 -196 0
72 12 -196 0
12 196 -72 0
72 196 -12 0
-73 -13 -197 0
73 13 -197 0
13 197 -73 0
73 197 -13 0
-74 -14 -198 0
74 14 -198 0
14 198 -74 0
74 198 -14 0
-75 -15 -199 0
75 15 -199 0
15 199 -75 0
75 199 -15 0
-76 -16 -200 0
76 16 -200 0
16 200 -76 0
76 200 -16 0
-77 -17 -201 0
77 17 -201 0
17 201 -77 0
77 201 -17 0
-78 -18 -202 0
78 18 -202 0
18 202 -78 0
78 202 -18 0
-79 -19 -203 0
79 19 -203 0
19 203 -79 0
79 203 -19 0
-80 -20 -204 0
80 20 -204 0
20 204 -80 0
80 204 -20 0
-185 -205 0
-186 -205 0
-187 -205 0
-188 -205 0
-189 -205 0
-190 -205 0
-191 -205 0
-192 -205 0
-193 -205 0
-194 -205 0
-195 -205 0
-196 -205 0
-197 -205 0
-198 -205 0
-199 -205 0
-200 -205 0
-201 -205 0
-202 -205 0
-203 -205 0
-204 -205 0
185 186 187 188 189 190 191 192 193 194 195 196 197 198 199 200 201 202 203 204 205 0
-81 -101 -206 0
81 101 -206 0
101 206 -81 0
81 206 -101 0
-82 -102 -207 0
82 102 -207 0
102 207 -82 0
82 207 -102 0
-83 -103 -208 0
83 103 -208 0
103 208 -83 0
83 208 -103 0
-84 -104 -209 0
84 104 -209 0
104 209 -84 0
84 209 -104 0
-85 -105 -210 0
85 105 -210 0
105 210 -85 0
85 210 -105 0
-86 -106 -211 0
86 106 -211 0
106 211 -86 0
86 211 -106 0
-87 -107 -212 0
87 107 -212 0
107 212 -87 0
87 212 -107 0
-88 -108 -213 0
88 108 -213 0
108 213 -88 0
88 213 -108 0
-89 -109 -214 0
89 109 -214 0
109 214 -89 0
89 214 -109 0
-90 -110 -215 0
90 110 -215 0
110 215 -90 0
90 215 -110 0
-91 -111 -216 0
91 111 -216 0
111 216 -91 0
91 216 -111 0
-92 -112 -217 0
92 112 -217 0
112 217 -92 0
92 217 -112 0
-93 -113 -218 0
93 113 -218 0
113 218 -93 0
93 218 -113 0
-94 -114 -219 0
94 114 -219 0
114 219 -94 0
94 219 -114 0
-95 -115 -220 0
95 115 -220 0
115 220 -95 0
95 220 -115 0
-96 -116 -221 0
96 116 -221 0
116 221 -96 0
96 221 -116 0
-97 -117 -222 0
97 117 -222 0
117 222 -97 0
97 222 -117 0
-98 -118 -223 0
98 118 -223 0
118 223 -98 0
98 223 -118 0
-99 -119 -224 0
99 119 -224 0
119 224 -99 0
99 224 -119 0
-100 -120 -225 0
100 120 -225 0
120 225 -100 0
100 225 -120 0
-206 -226 0
-207 -226 0
-208 -226 0
-209 -226 0
-210 -226 0
-211 -226 0
-212 -226 0
-213 -226 0
-214 -226 0
-215 -226 0
-216 -226 0
-217 -226 0
-218 -226 0
-219 -226 0
-220 -226 0
-221 -226 0
-222 -226 0
-223 -226 0
-224 -226 0
-225 -226 0
206 207 208 209 210 211 212 213 214 215 216 217 218 219 220 221 222 223 224 225 226 0
184 -227 0
205 -227 0
226 -227 0
227 -184 -205 -226 0
163 -228 0
227 -228 0
228 -163 -227 0
-121 -229 0
-122 -229 0
123 -229 0
-124 -229 0
-125 -229 0
126 -229 0
127 -229 0
-128 -229 0
-129 -229 0
-130 -229 0
-131 -229 0
-132 -229 0
-133 -229 0
-134 -229 0
-135 -229 0
-136 -229 0
-137 -229 0
-138 -229 0
-139 -229 0
-140 -229 0
121 122 124 125 128 129 130 131 132 133 134 135 136 137 138 139 140 229 -123 -126 -127 0
-141 -230 0
-142 -230 0
-143 -230 0
144 -230 0
-145 -230 0
-146 -230 0
147 -230 0
148 -230 0
-149 -230 0
-150 -230 0
-151 -230 0
-152 -230 0
-153 -230 0
-154 -230 0
-155 -230 0
-156 -230 0
-157 -230 0
-158 -230 0
-159 -230 0
-160 -230 0
141 142 143 145 146 149 150 151 152 153 154 155 156 157 158 159 160 230 -144 -147 -148 0
229 -231 0
230 -231 0
231 -229 -230 0
-41 -121 -232 0
41 121 -232 0
121 232 -41 0
41 232 -121 0
-42 -122 -233 0
42 122 -233 0
122 233 -42 0
42 233 -122 0
-43 -123 -234 0
43 123 -234 0
123 234 -43 0
43 234 -123 0
-44 -124 -235 0
44 124 -235 0
124 235 -44 0
44 235 -124 0
-45 -125 -236 0
45 125 -236 0
125 236 -45 0
45 236 -125 0
-46 -126 -237 0
46 126 -237 0
126 237 -46 0
46 237 -126 0
-47 -127 -238 0
47 127 -238 0
127 238 -47 0
47 238 -127 0
-48 -128 -239 0
48 128 -239 0
128 239 -48 0
48 239 -128 0
-49 -129 -240 0
49 129 -240 0
129 240 -49 0
49 240 -129 0
-50 -130 -241 0
50 130 -241 0
130 241 -50 0
50 241 -130 0
-51 -131 -242 0
51 131 -242 0
131 242 -51 0
51 242 -131 0
-52 -132 -243 0
52 132 -243 0
132 243 -52 0
52 243 -132 0
-53 -133 -244 0
53 133 -244 0
133 244 -53 0
53 244 -133 0
-54 -134 -245 0
54 134 -245 0
134 245 -54 0
54 245 -134 0
-55 -135 -246 0
55 135 -246 0
135 246 -55 0
55 246 -135 0
-56 -136 -247 0
56 136 -247 0
136 247 -56 0
56 247 -136 0
-57 -137 -248 0
57 137 -248 0
137 248 -57 0
57 248 -137 0
-58 -138 -249 0
58 138 -249 0
138 249 -58 0
58 249 -138 0
-59 -139 -250 0
59 139 -250 0
139 250 -59 0
59 250 -139 0
-60 -140 -251 0
60 140 -251 0
140 251 -60 0
60 251 -140 0
-232 -252 0
-233 -252 0
-234 -252 0
-235 -252 0
-236 -252 0
-237 -252 0
-238 -252 0
-239 -252 0
-240 -252 0
-241 -252 0
-242 -252 0
-243 -252 0
-244 -252 0
-245 -252 0
-246 -252 0
-247 -252 0
-248 -252 0
-249 -252 0
-250 -252 0
-251 -252 0
232 233 234 235 236 237 238 239 240 241 242 243 244 245 246 247 248 249 250 251 252 0
-61 -141 -253 0
61 141 -253 0
141 253 -61 0
61 253 -141 0
-62 -142 -254 0
62 142 -254 0
142 254 -62 0
62 254 -142 0
-63 -143 -255 0
63 143 -255 0
143 255 -63 0
63 255 -143 0
-64 -144 -256 0
64 144 -256 0
144 256 -64 0
64 256 -144 0
-65 -145 -257 0
65 145 -257 0
145 257 -65 0
65 257 -145 0
-66 -146 -258 0
66 146 -258 0
146 258 -66 0
66 258 -146 0
-67 -147 -259 0
67 147 -259 0
147 259 -67 0
67 259 -147 0
-68 -148 -260 0
68 148 -260 0
148 260 -68 0
68 260 -148 0
-69 -149 -261 0
69 149 -261 0
149 261 -69 0
69 261 -149 0
-70 -150 -262 0
70 150 -262 0
150 262 -70 0
70 262 -150 0
-71 -151 -263 0
71 151 -263 0
151 263 -71 0
71 263 -151 0
-72 -152 -264 0
72 152 -264 0
152 264 -72 0
72 264 -152 0
-73 -153 -265 0
73 153 -265 0
153 265 -73 0
73 265 -153 0
-74 -154 -266 0
74 154 -266 0
154 266 -74 0
74 266 -154 0
-75 -155 -267 0
75 155 -267 0
155 267 -75 0
75 267 -155 0
-76 -156 -268 0
76 156 -268 0
156 268 -76 0
76 268 -156 0
-77 -157 -269 0
77 157 -269 0
157 269 -77 0
77 269 -157 0
-78 -158 -270 0
78 158 -270 0
158 270 -78 0
78 270 -158 0
-79 -159 -271 0
79 159 -271 0
159 271 -79 0
79 271 -159 0
-80 -160 -272 0
80 160 -272 0
160 272 -80 0
80 272 -160 0
-253 -273 0
-254 -273 0
-255 -273 0
-256 -273 0
-257 -273 0
-258 -273 0
-259 -273 0
-260 -273 0
-261 -273 0
-262 -273 0
-263 -273 0
-264 -273 0
-265 -273 0
-266 -273 0
-267 -273 0
-268 -273 0
-269 -273 0
-270 -273 0
-271 -273 0
-272 -273 0
253 254 255 256 257 258 259 260 261 262 263 264 265 266 267 268 269 270 271 272 273 0
-81 -274 -294 0
81 274 -294 0
274 294 -81 0
81 294 -274 0
-82 -275 -295 0
82 275 -295 0
275 295 -82 0
82 295 -275 0
-83 -276 -296 0
83 276 -296 0
276 296 -83 0
83 296 -276 0
-84 -277 -297 0
84 277 -297 0
277 297 -84 0
84 297 -277 0
-85 -278 -298 0
85 278 -298 0
278 298 -85 0
85 298 -278 0
-86 -279 -299 0
86 279 -299 0
279 299 -86 0
86 299 -279 0
-87 -280 -300 0
87 280 -300 0
280 300 -87 0
87 300 -280 0
-88 -281 -301 0
88 281 -301 0
281 301 -88 0
88 301 -281 0
-89 -282 -302 0
89 282 -302 0
282 302 -89 0
89 302 -282 0
-90 -283 -303 0
90 283 -303 0
283 303 -90 0
90 303 -283 0
-91 -284 -304 0
91 284 -304 0
284 304 -91 0
91 304 -284 0
-92 -285 -305 0
92 285 -305 0
285 305 -92 0
92 305 -285 0
-93 -286 -306 0
93 286 -306 0
286 306 -93 0
93 306 -286 0
-94 -287 -307 0
94 287 -307 0
287 307 -94 0
94 307 -287 0
-95 -288 -308 0
95 288 -308 0
288 308 -95 0
95 308 -288 0
-96 -289 -309 0
96 289 -309 0
289 309 -96 0
96 309 -289 0
-97 -290 -310 0
97 290 -310 0
290 310 -97 0
97 310 -290 0
-98 -291 -311 0
98 291 -311 0
291 311 -98 0
98 311 -291 0
-99 -292 -312 0
99 292 -312 0
292 312 -99 0
99 312 -292 0
-100 -293 -313 0
100 293 -313 0
293 313 -100 0
100 313 -293 0
-294 -314 0
-295 -314 0
-296 -314 0
-297 -314 0
-298 -314 0
-299 -314 0
-300 -314 0
-301 -314 0
-302 -314 0
-303 -314 0
-304 -314 0
-305 -314 0
-306 -314 0
-307 -314 0
-308 -314 0
-309 -314 0
-310 -314 0
-311 -314 0
-312 -314 0
-313 -314 0
294 295 296 297 298 299 300 301 302 303 304 305 306 307 308 309 310 311 312 313 314 0
252 -315 0
273 -315 0
314 -315 0
315 -252 -273 -314 0
231 -316 0
315 -316 0
316 -231 -315 0
316 -228 0
